objective value:                                  523
sq1_0_0_19                                          1 	(obj:19)
sq1_0_1_8                                           1 	(obj:8)
sq1_0_2_11                                          1 	(obj:11)
sq1_1_0_5                                           1 	(obj:5)
sq1_1_1_12                                          1 	(obj:12)
sq3_0_0_21                                          1 	(obj:21)
sq2_0_1_14                                          1 	(obj:14)
sq2_0_2_17                                          1 	(obj:17)
sq3_1_0_6                                           1 	(obj:6)

sq2_0_0_38                                          1 	(obj:38)
sq2_0_1_14                                          1 	(obj:14)
sq2_0_2_17                                          1 	(obj:17)
sq2_1_0_2                                           1 	(obj:2)
sq2_1_1_23                                          1 	(obj:23)
sq4_0_0_44                                          1 	(obj:44)
sq2_2_0_29                                          1 	(obj:29)
sq2_2_1_32                                          1 	(obj:32)
sq4_1_0_7                                           1 	(obj:7)

sq3_0_0_21                                          1 	(obj:21)
sq3_0_1_1                                           1 	(obj:1)
sq3_0_2_15                                          1 	(obj:15)
sq3_1_0_6                                           1 	(obj:6)
sq3_1_1_13                                          1 	(obj:13)
sq3_1_2_18                                          1 	(obj:18)
sq4_0_1_10                                          1 	(obj:10)
sq4_0_2_24                                          1 	(obj:24)
sq3_2_2_4                                           1 	(obj:4)

sq4_0_0_44                                          1 	(obj:44)
sq4_0_1_10                                          1 	(obj:10)
sq4_0_2_24                                          1 	(obj:24)
sq4_1_0_7                                           1 	(obj:7)
sq4_1_1_26                                          1 	(obj:26)
sq4_1_2_45                                          1 	(obj:45)
sq4_2_0_28                                          1 	(obj:28)
sq4_2_1_42                                          1 	(obj:42)
sq4_2_2_9                                           1 	(obj:9)

magic1                                             38 	(obj:0)
magic2                                             69 	(obj:0)
magic3                                             38 	(obj:0)
magic4                                             79 	(obj:0)
